Version identifier: 12.10.0.0 | 2019-11-26 | 843d4de
CPXPARAM_WorkMem                                 16384
CPXPARAM_MIP_Limits_TreeMemory                   24576
Tried aggregator 2 times.
MIP Presolve eliminated 32 rows and 0 columns.
MIP Presolve added 64 rows and 0 columns.
Aggregator did 90 substitutions.
Reduced MIP has 184 rows, 165 columns, and 738 nonzeros.
Reduced MIP has 165 binaries, 0 generals, 0 SOSs, and 0 indicators.
Presolve time = 0,00 sec. (1,72 ticks)
Found incumbent of value 498,000000 after 0,00 sec. (1,95 ticks)
Probing time = 0,00 sec. (1,09 ticks)
Tried aggregator 1 time.
Detecting symmetries...
Reduced MIP has 184 rows, 165 columns, and 738 nonzeros.
Reduced MIP has 165 binaries, 0 generals, 0 SOSs, and 0 indicators.
Presolve time = 0,00 sec. (0,61 ticks)
Probing time = 0,00 sec. (1,08 ticks)
Clique table members: 584.
MIP emphasis: balance optimality and feasibility.
MIP search method: dynamic search.
Parallel mode: deterministic, using up to 16 threads.
Root relaxation solution time = 0,00 sec. (0,58 ticks)

        Nodes                                         Cuts/
   Node  Left     Objective  IInf  Best Integer    Best Bound    ItCnt     Gap

*     0+    0                          498,0000        0,0000           100,00%
*     0+    0                          470,0000        0,0000           100,00%
      0     0      263,0000   165      470,0000      263,0000       69   44,04%
*     0+    0                          469,0000      263,0000            43,92%
      0     0      267,6222   165      469,0000     Cuts: 105       96   42,94%
      0     0      272,6009   165      469,0000     Cuts: 145      154   41,88%
*     0+    0                          468,0000      272,6009            41,75%
      0     0      272,6113   165      468,0000     Cuts: 146      165   41,75%
      0     0      272,6167   165      468,0000     Cuts: 146      170   41,75%
      0     0      272,8463   165      468,0000  ZeroHalf: 14      190   41,70%
Detecting symmetries...
      0     0      272,9019   165      468,0000     Cuts: 146      197   41,69%
      0     0      272,9034   165      468,0000  ZeroHalf: 63      202   41,69%
*     0+    0                          466,0000      272,9034            41,44%
*     0+    0                          457,0000      272,9034            40,28%
Detecting symmetries...
      0     2      272,9034   160      457,0000      437,0000      202    4,38%
Elapsed time = 0,18 sec. (61,74 ticks, tree = 0,02 MB, solutions = 6)

Clique cuts applied:  38
Cover cuts applied:  171
Mixed integer rounding cuts applied:  31
Zero-half cuts applied:  8
Gomory fractional cuts applied:  11

Root node processing (before b&c):
  Real time             =    0,17 sec. (61,53 ticks)
Parallel b&c, 16 threads:
  Real time             =    0,22 sec. (129,36 ticks)
  Sync time (average)   =    0,12 sec.
  Wait time (average)   =    0,00 sec.
                          ------------
Total (root+branch&cut) =    0,39 sec. (190,89 ticks)
